
Gurobi 6.5.2 (linux64) logging started Tue Sep  6 10:06:18 2016

Optimize a model with 41 rows, 115 columns and 245 nonzeros
Coefficient statistics:
  Matrix range    [1e+00, 2e+00]
  Objective range [8e+00, 1e+02]
  Bounds range    [1e+00, 1e+00]
  RHS range       [1e+00, 1e+00]
Presolve removed 16 rows and 11 columns
Presolve time: 0.00s
Presolved: 25 rows, 104 columns, 213 nonzeros
Variable types: 0 continuous, 104 integer (104 binary)
Found heuristic solution: objective 708.0000000

Root relaxation: objective 6.020000e+02, 28 iterations, 0.00 seconds

    Nodes    |    Current Node    |     Objective Bounds      |     Work
 Expl Unexpl |  Obj  Depth IntInf | Incumbent    BestBd   Gap | It/Node Time

     0     0  602.00000    0    8  708.00000  602.00000  15.0%     -    0s
H    0     0                     643.0000000  602.00000  6.38%     -    0s
     0     0  607.50000    0   15  643.00000  607.50000  5.52%     -    0s
     0     0  611.15789    0   21  643.00000  611.15789  4.95%     -    0s
H    0     0                     621.0000000  611.15789  1.58%     -    0s
     0     0  611.44444    0   22  621.00000  611.44444  1.54%     -    0s
     0     0  611.44444    0   16  621.00000  611.44444  1.54%     -    0s
     0     0  611.44444    0   18  621.00000  611.44444  1.54%     -    0s
     0     0  612.00000    0   14  621.00000  612.00000  1.45%     -    0s
     0     0  613.30000    0   18  621.00000  613.30000  1.24%     -    0s
     0     0  613.76471    0   22  621.00000  613.76471  1.17%     -    0s
H    0     0                     620.0000000  613.76471  1.01%     -    0s
     0     0  613.76471    0   22  620.00000  613.76471  1.01%     -    0s
     0     0  614.09091    0   23  620.00000  614.09091  0.95%     -    0s
     0     0  614.14286    0   23  620.00000  614.14286  0.94%     -    0s
     0     0  614.16667    0   23  620.00000  614.16667  0.94%     -    0s
     0     0  615.33333    0   17  620.00000  615.33333  0.75%     -    0s
     0     0  615.75000    0   14  620.00000  615.75000  0.69%     -    0s
     0     0  615.75000    0   14  620.00000  615.75000  0.69%     -    0s
     0     2  615.75000    0   14  620.00000  615.75000  0.69%     -    0s
*    2     1               1     618.0000000  616.00000  0.32%   4.0    0s
*    3     0               2     616.0000000  616.00000  0.00%   3.0    0s

Cutting planes:
  Gomory: 3
  Cover: 2
  MIR: 1
  Zero half: 1

Explored 4 nodes (115 simplex iterations) in 0.02 seconds
Thread count was 8 (of 8 available processors)

Optimal solution found (tolerance 1.00e-04)
Best objective 6.160000000000e+02, best bound 6.160000000000e+02, gap 0.0%
